100
32
18
21
15
3
25
19
13
25
9
9
1
1
16
2
2
2
1
1
3
1
1
1
18
1
1
2
1
1
1
17
1
2
2
5
1
18
1
17
1
3
2
4
1
1
1
19
6
1
1
1
2
4
5
1
1
17
20
10
1
1
2
2
1
9
1
2
2
1
1
1
21
2
1
3
4
2
1
2
17
4
3
1
2
18
1
2
2
2
1
3
1
2
1
1
1
5
1
2
1
2